
Gurobi 9.1.2 (linux64) logging started Thu Apr  7 16:37:14 2022

Changed value of parameter LogFile to /home/DAVIDSON/doflocco/Graph_Pebbling/results/lemke square/ls-bounds/v-(2,7)/ls_sym_v-(2,7).log
   Prev:   Default: 
Changed value of parameter MIPFocus to 1
   Prev: 0  Min: 0  Max: 3  Default: 0
Changed value of parameter TimeLimit to 10800.0
   Prev: inf  Min: 0.0  Max: inf  Default: inf
Warning: variable name "X[(2, 0),(2, 2)]" has a space
Warning: constraint name "flow-constr-t0-v(2, 7)" has a space
Warning: to let Gurobi read it back, use rlp format
Gurobi Optimizer version 9.1.2 build v9.1.2rc0 (linux64)
Thread count: 32 physical cores, 64 logical processors, using up to 32 threads
Optimize a model with 4807 rows, 4352 columns and 16496 nonzeros
Model fingerprint: 0xa0f0487f
Variable types: 512 continuous, 3840 integer (3840 binary)
Coefficient statistics:
  Matrix range     [1e+00, 7e+04]
  Objective range  [1e-01, 1e-01]
  Bounds range     [1e+00, 3e+04]
  RHS range        [1e+00, 7e+04]
Presolve removed 491 rows and 520 columns
Presolve time: 0.09s
Presolved: 4316 rows, 3832 columns, 24008 nonzeros
Variable types: 512 continuous, 3320 integer (3320 binary)

Root relaxation: objective 6.400000e+01, 143 iterations, 0.00 seconds

    Nodes    |    Current Node    |     Objective Bounds      |     Work
 Expl Unexpl |  Obj  Depth IntInf | Incumbent    BestBd   Gap | It/Node Time

     0     0   64.00000    0   48          -   64.00000      -     -    0s
H    0     0                     868.6249999   64.00000  92.6%     -    0s
H    0     0                     868.4999999   64.00000  92.6%     -    0s
H    0     0                     866.6249999   64.00000  92.6%     -    0s
     0     0   64.00000    0   82  866.62500   64.00000  92.6%     -    0s
H    0     0                     450.8750000   64.00000  85.8%     -    0s
H    0     0                     142.9062500   64.00000  55.2%     -    0s
     0     0   64.00000    0   88  142.90625   64.00000  55.2%     -    0s
H    0     0                     111.8906250   64.00000  42.8%     -    0s
H    0     0                     103.3750000   64.00000  38.1%     -    0s
H    0     0                      99.1250000   64.00000  35.4%     -    0s
     0     0   64.00000    0   50   99.12500   64.00000  35.4%     -    0s
H    0     0                      93.0833333   64.00000  31.2%     -    0s
H    0     0                      90.8593750   64.00000  29.6%     -    0s
H    0     0                      87.3750000   64.00000  26.8%     -    0s
     0     0   64.00000    0   52   87.37500   64.00000  26.8%     -    0s
H    0     0                      87.2500000   64.00000  26.6%     -    0s
H    0     0                      86.3437500   64.00000  25.9%     -    0s
     0     0   64.00000    0   24   86.34375   64.00000  25.9%     -    0s
H    0     0                      80.9843750   64.00000  21.0%     -    1s
     0     0   64.00000    0   36   80.98437   64.00000  21.0%     -    1s
     0     0   64.00000    0   26   80.98437   64.00000  21.0%     -    1s
     0     0   64.00000    0   44   80.98437   64.00000  21.0%     -    1s
     0     0   64.00000    0   23   80.98437   64.00000  21.0%     -    1s
H    0     0                      76.7812500   64.00000  16.6%     -    1s
H    0     0                      73.5000000   64.00000  12.9%     -    1s
     0     2   64.00000    0   20   73.50000   64.00000  12.9%     -    1s
H    1     4                      72.2500000   64.00000  11.4%   551    2s
H   31    62                      72.1875000   64.00000  11.3%  31.2    2s
H   31    62                      71.3750000   64.00000  10.3%  31.2    2s
H   32    62                      71.0625000   64.00000  9.94%  30.3    2s
H   38    62                      70.8437500   64.00000  9.66%  26.0    2s
H   41    62                      70.3750000   64.00000  9.06%  24.2    2s
H   54    62                      70.3125000   64.00000  8.98%  20.4    2s
H  159   181                      69.2500000   64.00000  7.58%   9.6    4s
H  160   181                      68.4375000   64.00000  6.48%   9.6    4s
   191   212   64.00000   10   25   68.43750   64.00000  6.48%   8.7    5s
H  192   212                      68.4374999   64.00000  6.48%   8.7    5s
H  193   212                      68.1875000   64.00000  6.14%   8.7    5s
H  195   212                      67.9375000   64.00000  5.80%   8.7    5s
H  199   212                      67.6250000   64.00000  5.36%   8.5    5s
H  223   242                      66.9722222   64.00000  4.44%  17.9    6s
H  224   242                      66.7500000   64.00000  4.12%  18.0    6s
H  228   242                      66.4107143   64.00000  3.63%  17.7    6s
H  229   242                      66.3750000   64.00000  3.58%  17.6    6s
H  230   242                      66.3437500   64.00000  3.53%  17.6    6s
H  234   242                      66.1250000   64.00000  3.21%  17.3    6s
H  259   274                      66.1249999   64.00000  3.21%  15.9    9s
H  262   274                      66.0000000   64.00000  3.03%  15.8    9s
   832  1054   64.00000   30   42   66.00000   64.00000  3.03%  15.4   10s
H 4850  3404                      65.0000000   64.00000  1.54%  30.3   13s
  4894  3403   64.00000   11   62   65.00000   64.00000  1.54%  30.4   15s
  4993  3502   64.00000   17   93   65.00000   64.00000  1.54%  36.3   20s
H 4997  3330                      64.2500000   64.00000  0.39%  36.2   20s
H 5089  3231                      64.0000000   64.00000  0.00%  35.9   22s

Cutting planes:
  Learned: 3
  Gomory: 2
  Cover: 58
  Implied bound: 69
  Clique: 49
  MIR: 46
  Flow cover: 108
  GUB cover: 2
  RLT: 26
  Relax-and-lift: 147

Explored 5121 nodes (204709 simplex iterations) in 22.11 seconds
Thread count was 32 (of 64 available processors)

Solution count 10: 64 64.25 65 ... 66.75

Optimal solution found (tolerance 1.00e-04)
Best objective 6.400000000000e+01, best bound 6.400000000000e+01, gap 0.0000%
